c Standarized MaxSat Instance
c{
c "sha1sum": "c9c7b30c2872bc55f5652cae3887f5d8e76a8807",
c "nvars": 42,
c "ncls": 840,
c "nhards": 0,
c "nhard_len_stats":
c    { "min": 0, "max": 0, "ave": 0.00,
c      "stddev": 0.00 },
c "nsofts": 840,
c "nsoft_len_stats":
c    { "min": 2, "max": 2, "ave": 2.00,
c      "stddev": 0.00 },
c "nsoft_wts": 1,
c "soft_wt_stats":
c    { "min": 1, "max": 1, "ave": 1.00,
c      "stddev": 0.00 }
c}
c------------------------------------------------------------
c File:  c-fat500-10.clq
c
c Source: Panos Pardalos pardalos@math.ufl.edu
c
c Reference: P. Berman and A. Pelc, Distributed Fault Diagnosis for
c            Multiprocessor Systems, Proceedings of the 20th Annual
c            International Symposium on Fault-Tolerant Computing
c            Newcastle, UK, 340-346 (1990)
c
p wcnf 42 840 841
1 1 3 0
1 -1 -3 0
1 1 5 0
1 -1 -5 0
1 1 7 0
1 -1 -7 0
1 1 9 0
1 -1 -9 0
1 1 11 0
1 -1 -11 0
1 1 13 0
1 -1 -13 0
1 1 15 0
1 -1 -15 0
1 1 17 0
1 -1 -17 0
1 1 19 0
1 -1 -19 0
1 1 21 0
1 -1 -21 0
1 1 23 0
1 -1 -23 0
1 1 25 0
1 -1 -25 0
1 1 27 0
1 -1 -27 0
1 1 29 0
1 -1 -29 0
1 1 31 0
1 -1 -31 0
1 1 33 0
1 -1 -33 0
1 1 35 0
1 -1 -35 0
1 1 37 0
1 -1 -37 0
1 1 39 0
1 -1 -39 0
1 1 41 0
1 -1 -41 0
1 2 4 0
1 -2 -4 0
1 2 6 0
1 -2 -6 0
1 2 8 0
1 -2 -8 0
1 2 10 0
1 -2 -10 0
1 2 12 0
1 -2 -12 0
1 2 14 0
1 -2 -14 0
1 2 16 0
1 -2 -16 0
1 2 18 0
1 -2 -18 0
1 2 20 0
1 -2 -20 0
1 2 22 0
1 -2 -22 0
1 2 24 0
1 -2 -24 0
1 2 26 0
1 -2 -26 0
1 2 28 0
1 -2 -28 0
1 2 30 0
1 -2 -30 0
1 2 32 0
1 -2 -32 0
1 2 34 0
1 -2 -34 0
1 2 36 0
1 -2 -36 0
1 2 38 0
1 -2 -38 0
1 2 40 0
1 -2 -40 0
1 2 42 0
1 -2 -42 0
1 3 5 0
1 -3 -5 0
1 3 7 0
1 -3 -7 0
1 3 9 0
1 -3 -9 0
1 3 11 0
1 -3 -11 0
1 3 13 0
1 -3 -13 0
1 3 15 0
1 -3 -15 0
1 3 17 0
1 -3 -17 0
1 3 19 0
1 -3 -19 0
1 3 21 0
1 -3 -21 0
1 3 23 0
1 -3 -23 0
1 3 25 0
1 -3 -25 0
1 3 27 0
1 -3 -27 0
1 3 29 0
1 -3 -29 0
1 3 31 0
1 -3 -31 0
1 3 33 0
1 -3 -33 0
1 3 35 0
1 -3 -35 0
1 3 37 0
1 -3 -37 0
1 3 39 0
1 -3 -39 0
1 3 41 0
1 -3 -41 0
1 4 6 0
1 -4 -6 0
1 4 8 0
1 -4 -8 0
1 4 10 0
1 -4 -10 0
1 4 12 0
1 -4 -12 0
1 4 14 0
1 -4 -14 0
1 4 16 0
1 -4 -16 0
1 4 18 0
1 -4 -18 0
1 4 20 0
1 -4 -20 0
1 4 22 0
1 -4 -22 0
1 4 24 0
1 -4 -24 0
1 4 26 0
1 -4 -26 0
1 4 28 0
1 -4 -28 0
1 4 30 0
1 -4 -30 0
1 4 32 0
1 -4 -32 0
1 4 34 0
1 -4 -34 0
1 4 36 0
1 -4 -36 0
1 4 38 0
1 -4 -38 0
1 4 40 0
1 -4 -40 0
1 4 42 0
1 -4 -42 0
1 5 7 0
1 -5 -7 0
1 5 9 0
1 -5 -9 0
1 5 11 0
1 -5 -11 0
1 5 13 0
1 -5 -13 0
1 5 15 0
1 -5 -15 0
1 5 17 0
1 -5 -17 0
1 5 19 0
1 -5 -19 0
1 5 21 0
1 -5 -21 0
1 5 23 0
1 -5 -23 0
1 5 25 0
1 -5 -25 0
1 5 27 0
1 -5 -27 0
1 5 29 0
1 -5 -29 0
1 5 31 0
1 -5 -31 0
1 5 33 0
1 -5 -33 0
1 5 35 0
1 -5 -35 0
1 5 37 0
1 -5 -37 0
1 5 39 0
1 -5 -39 0
1 5 41 0
1 -5 -41 0
1 6 8 0
1 -6 -8 0
1 6 10 0
1 -6 -10 0
1 6 12 0
1 -6 -12 0
1 6 14 0
1 -6 -14 0
1 6 16 0
1 -6 -16 0
1 6 18 0
1 -6 -18 0
1 6 20 0
1 -6 -20 0
1 6 22 0
1 -6 -22 0
1 6 24 0
1 -6 -24 0
1 6 26 0
1 -6 -26 0
1 6 28 0
1 -6 -28 0
1 6 30 0
1 -6 -30 0
1 6 32 0
1 -6 -32 0
1 6 34 0
1 -6 -34 0
1 6 36 0
1 -6 -36 0
1 6 38 0
1 -6 -38 0
1 6 40 0
1 -6 -40 0
1 6 42 0
1 -6 -42 0
1 7 9 0
1 -7 -9 0
1 7 11 0
1 -7 -11 0
1 7 13 0
1 -7 -13 0
1 7 15 0
1 -7 -15 0
1 7 17 0
1 -7 -17 0
1 7 19 0
1 -7 -19 0
1 7 21 0
1 -7 -21 0
1 7 23 0
1 -7 -23 0
1 7 25 0
1 -7 -25 0
1 7 27 0
1 -7 -27 0
1 7 29 0
1 -7 -29 0
1 7 31 0
1 -7 -31 0
1 7 33 0
1 -7 -33 0
1 7 35 0
1 -7 -35 0
1 7 37 0
1 -7 -37 0
1 7 39 0
1 -7 -39 0
1 7 41 0
1 -7 -41 0
1 8 10 0
1 -8 -10 0
1 8 12 0
1 -8 -12 0
1 8 14 0
1 -8 -14 0
1 8 16 0
1 -8 -16 0
1 8 18 0
1 -8 -18 0
1 8 20 0
1 -8 -20 0
1 8 22 0
1 -8 -22 0
1 8 24 0
1 -8 -24 0
1 8 26 0
1 -8 -26 0
1 8 28 0
1 -8 -28 0
1 8 30 0
1 -8 -30 0
1 8 32 0
1 -8 -32 0
1 8 34 0
1 -8 -34 0
1 8 36 0
1 -8 -36 0
1 8 38 0
1 -8 -38 0
1 8 40 0
1 -8 -40 0
1 8 42 0
1 -8 -42 0
1 9 11 0
1 -9 -11 0
1 9 13 0
1 -9 -13 0
1 9 15 0
1 -9 -15 0
1 9 17 0
1 -9 -17 0
1 9 19 0
1 -9 -19 0
1 9 21 0
1 -9 -21 0
1 9 23 0
1 -9 -23 0
1 9 25 0
1 -9 -25 0
1 9 27 0
1 -9 -27 0
1 9 29 0
1 -9 -29 0
1 9 31 0
1 -9 -31 0
1 9 33 0
1 -9 -33 0
1 9 35 0
1 -9 -35 0
1 9 37 0
1 -9 -37 0
1 9 39 0
1 -9 -39 0
1 9 41 0
1 -9 -41 0
1 10 12 0
1 -10 -12 0
1 10 14 0
1 -10 -14 0
1 10 16 0
1 -10 -16 0
1 10 18 0
1 -10 -18 0
1 10 20 0
1 -10 -20 0
1 10 22 0
1 -10 -22 0
1 10 24 0
1 -10 -24 0
1 10 26 0
1 -10 -26 0
1 10 28 0
1 -10 -28 0
1 10 30 0
1 -10 -30 0
1 10 32 0
1 -10 -32 0
1 10 34 0
1 -10 -34 0
1 10 36 0
1 -10 -36 0
1 10 38 0
1 -10 -38 0
1 10 40 0
1 -10 -40 0
1 10 42 0
1 -10 -42 0
1 11 13 0
1 -11 -13 0
1 11 15 0
1 -11 -15 0
1 11 17 0
1 -11 -17 0
1 11 19 0
1 -11 -19 0
1 11 21 0
1 -11 -21 0
1 11 23 0
1 -11 -23 0
1 11 25 0
1 -11 -25 0
1 11 27 0
1 -11 -27 0
1 11 29 0
1 -11 -29 0
1 11 31 0
1 -11 -31 0
1 11 33 0
1 -11 -33 0
1 11 35 0
1 -11 -35 0
1 11 37 0
1 -11 -37 0
1 11 39 0
1 -11 -39 0
1 11 41 0
1 -11 -41 0
1 12 14 0
1 -12 -14 0
1 12 16 0
1 -12 -16 0
1 12 18 0
1 -12 -18 0
1 12 20 0
1 -12 -20 0
1 12 22 0
1 -12 -22 0
1 12 24 0
1 -12 -24 0
1 12 26 0
1 -12 -26 0
1 12 28 0
1 -12 -28 0
1 12 30 0
1 -12 -30 0
1 12 32 0
1 -12 -32 0
1 12 34 0
1 -12 -34 0
1 12 36 0
1 -12 -36 0
1 12 38 0
1 -12 -38 0
1 12 40 0
1 -12 -40 0
1 12 42 0
1 -12 -42 0
1 13 15 0
1 -13 -15 0
1 13 17 0
1 -13 -17 0
1 13 19 0
1 -13 -19 0
1 13 21 0
1 -13 -21 0
1 13 23 0
1 -13 -23 0
1 13 25 0
1 -13 -25 0
1 13 27 0
1 -13 -27 0
1 13 29 0
1 -13 -29 0
1 13 31 0
1 -13 -31 0
1 13 33 0
1 -13 -33 0
1 13 35 0
1 -13 -35 0
1 13 37 0
1 -13 -37 0
1 13 39 0
1 -13 -39 0
1 13 41 0
1 -13 -41 0
1 14 16 0
1 -14 -16 0
1 14 18 0
1 -14 -18 0
1 14 20 0
1 -14 -20 0
1 14 22 0
1 -14 -22 0
1 14 24 0
1 -14 -24 0
1 14 26 0
1 -14 -26 0
1 14 28 0
1 -14 -28 0
1 14 30 0
1 -14 -30 0
1 14 32 0
1 -14 -32 0
1 14 34 0
1 -14 -34 0
1 14 36 0
1 -14 -36 0
1 14 38 0
1 -14 -38 0
1 14 40 0
1 -14 -40 0
1 14 42 0
1 -14 -42 0
1 15 17 0
1 -15 -17 0
1 15 19 0
1 -15 -19 0
1 15 21 0
1 -15 -21 0
1 15 23 0
1 -15 -23 0
1 15 25 0
1 -15 -25 0
1 15 27 0
1 -15 -27 0
1 15 29 0
1 -15 -29 0
1 15 31 0
1 -15 -31 0
1 15 33 0
1 -15 -33 0
1 15 35 0
1 -15 -35 0
1 15 37 0
1 -15 -37 0
1 15 39 0
1 -15 -39 0
1 15 41 0
1 -15 -41 0
1 16 18 0
1 -16 -18 0
1 16 20 0
1 -16 -20 0
1 16 22 0
1 -16 -22 0
1 16 24 0
1 -16 -24 0
1 16 26 0
1 -16 -26 0
1 16 28 0
1 -16 -28 0
1 16 30 0
1 -16 -30 0
1 16 32 0
1 -16 -32 0
1 16 34 0
1 -16 -34 0
1 16 36 0
1 -16 -36 0
1 16 38 0
1 -16 -38 0
1 16 40 0
1 -16 -40 0
1 16 42 0
1 -16 -42 0
1 17 19 0
1 -17 -19 0
1 17 21 0
1 -17 -21 0
1 17 23 0
1 -17 -23 0
1 17 25 0
1 -17 -25 0
1 17 27 0
1 -17 -27 0
1 17 29 0
1 -17 -29 0
1 17 31 0
1 -17 -31 0
1 17 33 0
1 -17 -33 0
1 17 35 0
1 -17 -35 0
1 17 37 0
1 -17 -37 0
1 17 39 0
1 -17 -39 0
1 17 41 0
1 -17 -41 0
1 18 20 0
1 -18 -20 0
1 18 22 0
1 -18 -22 0
1 18 24 0
1 -18 -24 0
1 18 26 0
1 -18 -26 0
1 18 28 0
1 -18 -28 0
1 18 30 0
1 -18 -30 0
1 18 32 0
1 -18 -32 0
1 18 34 0
1 -18 -34 0
1 18 36 0
1 -18 -36 0
1 18 38 0
1 -18 -38 0
1 18 40 0
1 -18 -40 0
1 18 42 0
1 -18 -42 0
1 19 21 0
1 -19 -21 0
1 19 23 0
1 -19 -23 0
1 19 25 0
1 -19 -25 0
1 19 27 0
1 -19 -27 0
1 19 29 0
1 -19 -29 0
1 19 31 0
1 -19 -31 0
1 19 33 0
1 -19 -33 0
1 19 35 0
1 -19 -35 0
1 19 37 0
1 -19 -37 0
1 19 39 0
1 -19 -39 0
1 19 41 0
1 -19 -41 0
1 20 22 0
1 -20 -22 0
1 20 24 0
1 -20 -24 0
1 20 26 0
1 -20 -26 0
1 20 28 0
1 -20 -28 0
1 20 30 0
1 -20 -30 0
1 20 32 0
1 -20 -32 0
1 20 34 0
1 -20 -34 0
1 20 36 0
1 -20 -36 0
1 20 38 0
1 -20 -38 0
1 20 40 0
1 -20 -40 0
1 20 42 0
1 -20 -42 0
1 21 23 0
1 -21 -23 0
1 21 25 0
1 -21 -25 0
1 21 27 0
1 -21 -27 0
1 21 29 0
1 -21 -29 0
1 21 31 0
1 -21 -31 0
1 21 33 0
1 -21 -33 0
1 21 35 0
1 -21 -35 0
1 21 37 0
1 -21 -37 0
1 21 39 0
1 -21 -39 0
1 21 41 0
1 -21 -41 0
1 22 24 0
1 -22 -24 0
1 22 26 0
1 -22 -26 0
1 22 28 0
1 -22 -28 0
1 22 30 0
1 -22 -30 0
1 22 32 0
1 -22 -32 0
1 22 34 0
1 -22 -34 0
1 22 36 0
1 -22 -36 0
1 22 38 0
1 -22 -38 0
1 22 40 0
1 -22 -40 0
1 22 42 0
1 -22 -42 0
1 23 25 0
1 -23 -25 0
1 23 27 0
1 -23 -27 0
1 23 29 0
1 -23 -29 0
1 23 31 0
1 -23 -31 0
1 23 33 0
1 -23 -33 0
1 23 35 0
1 -23 -35 0
1 23 37 0
1 -23 -37 0
1 23 39 0
1 -23 -39 0
1 23 41 0
1 -23 -41 0
1 24 26 0
1 -24 -26 0
1 24 28 0
1 -24 -28 0
1 24 30 0
1 -24 -30 0
1 24 32 0
1 -24 -32 0
1 24 34 0
1 -24 -34 0
1 24 36 0
1 -24 -36 0
1 24 38 0
1 -24 -38 0
1 24 40 0
1 -24 -40 0
1 24 42 0
1 -24 -42 0
1 25 27 0
1 -25 -27 0
1 25 29 0
1 -25 -29 0
1 25 31 0
1 -25 -31 0
1 25 33 0
1 -25 -33 0
1 25 35 0
1 -25 -35 0
1 25 37 0
1 -25 -37 0
1 25 39 0
1 -25 -39 0
1 25 41 0
1 -25 -41 0
1 26 28 0
1 -26 -28 0
1 26 30 0
1 -26 -30 0
1 26 32 0
1 -26 -32 0
1 26 34 0
1 -26 -34 0
1 26 36 0
1 -26 -36 0
1 26 38 0
1 -26 -38 0
1 26 40 0
1 -26 -40 0
1 26 42 0
1 -26 -42 0
1 27 29 0
1 -27 -29 0
1 27 31 0
1 -27 -31 0
1 27 33 0
1 -27 -33 0
1 27 35 0
1 -27 -35 0
1 27 37 0
1 -27 -37 0
1 27 39 0
1 -27 -39 0
1 27 41 0
1 -27 -41 0
1 28 30 0
1 -28 -30 0
1 28 32 0
1 -28 -32 0
1 28 34 0
1 -28 -34 0
1 28 36 0
1 -28 -36 0
1 28 38 0
1 -28 -38 0
1 28 40 0
1 -28 -40 0
1 28 42 0
1 -28 -42 0
1 29 31 0
1 -29 -31 0
1 29 33 0
1 -29 -33 0
1 29 35 0
1 -29 -35 0
1 29 37 0
1 -29 -37 0
1 29 39 0
1 -29 -39 0
1 29 41 0
1 -29 -41 0
1 30 32 0
1 -30 -32 0
1 30 34 0
1 -30 -34 0
1 30 36 0
1 -30 -36 0
1 30 38 0
1 -30 -38 0
1 30 40 0
1 -30 -40 0
1 30 42 0
1 -30 -42 0
1 31 33 0
1 -31 -33 0
1 31 35 0
1 -31 -35 0
1 31 37 0
1 -31 -37 0
1 31 39 0
1 -31 -39 0
1 31 41 0
1 -31 -41 0
1 32 34 0
1 -32 -34 0
1 32 36 0
1 -32 -36 0
1 32 38 0
1 -32 -38 0
1 32 40 0
1 -32 -40 0
1 32 42 0
1 -32 -42 0
1 33 35 0
1 -33 -35 0
1 33 37 0
1 -33 -37 0
1 33 39 0
1 -33 -39 0
1 33 41 0
1 -33 -41 0
1 34 36 0
1 -34 -36 0
1 34 38 0
1 -34 -38 0
1 34 40 0
1 -34 -40 0
1 34 42 0
1 -34 -42 0
1 35 37 0
1 -35 -37 0
1 35 39 0
1 -35 -39 0
1 35 41 0
1 -35 -41 0
1 36 38 0
1 -36 -38 0
1 36 40 0
1 -36 -40 0
1 36 42 0
1 -36 -42 0
1 37 39 0
1 -37 -39 0
1 37 41 0
1 -37 -41 0
1 38 40 0
1 -38 -40 0
1 38 42 0
1 -38 -42 0
1 39 41 0
1 -39 -41 0
1 40 42 0
1 -40 -42 0
